; benchmark generated from python API
(set-info :status unknown)
(declare-datatypes ((RealState 0)) (((RMk1 (rval1 Real)) (RMk2 (rval2 Real)))))
 (assert
 (forall ((|v11:0| Real) )(exists ((|v10:1_st| RealState) (val!2004 Real) )(forall ((|v9:2| Real) )(exists ((|v8:3_st| RealState) (val!2005 Real) )(forall ((|v7:4| Real) )(exists ((|v6:5_st| RealState) (val!2006 Real) )(forall ((|v5:6| Real) )(exists ((|v4:7_st| RealState) (val!2007 Real) )(forall ((|v3:8| Real) )(exists ((|v2:9_st| RealState) (val!2008 Real) )(forall ((|v1:10| Real) )(exists ((|v0:11_st| RealState) (val!2009 Real) )(let ((?x1289 (* 16.0 |v11:0|)))
 (let ((?x1509 (+ (+ (* (- 14.0) |v7:4|) (* (- 15.0) (rval2 |v4:7_st|))) (* (- 5.0) (rval2 |v2:9_st|)))))
 (let ((?x2792 (- 19.0)))
 (let ((?x168 (* ?x2792 |v3:8|)))
 (let ((?x425 (+ (+ (* (- 4.0) (rval2 |v10:1_st|)) (* 19.0 (rval2 |v6:5_st|))) (* 0.0 (rval2 |v0:11_st|)))))
 (let ((?x1273 (- 2.0)))
 (let ((?x2603 (+ (+ (* (- 9.0) (rval2 |v8:3_st|)) (* (- 18.0) (rval2 |v6:5_st|))) (* 17.0 (rval2 |v2:9_st|)))))
 (let (($x2829 (and (<= (+ ?x2603 (* 13.0 (rval2 |v10:1_st|))) ?x1273) (<= (+ ?x425 ?x168) ?x2792))))
 (let ((?x1004 (+ (+ (* (- 15.0) (rval2 |v2:9_st|)) (* (- 7.0) |v7:4|)) (* (- 20.0) |v3:8|))))
 (let ((?x2859 (rval2 |v10:1_st|)))
 (let ((?x1938 (* 18.0 ?x2859)))
 (let ((?x2213 (rval2 |v2:9_st|)))
 (let ((?x1275 (* 16.0 ?x2213)))
 (let (($x662 (<= (+ (+ (+ (* 3.0 |v1:10|) (* (- 16.0) (rval2 |v6:5_st|))) ?x1275) ?x1938) 14.0)))
 (let ((?x438 (- 15.0)))
 (let ((?x2264 (* 11.0 ?x2859)))
 (let (($x191 (<= (+ (+ (+ (* (- 18.0) ?x2213) (* ?x2792 |v1:10|)) (* 4.0 ?x2213)) ?x2264) ?x438)))
 (let ((?x1435 (- 18.0)))
 (let ((?x2306 (+ (+ (+ (* ?x1273 |v1:10|) ?x1289) (* (- 16.0) (rval2 |v8:3_st|))) (* 13.0 |v7:4|))))
 (let ((?x210 (* 3.0 |v1:10|)))
 (let ((?x1661 (+ (+ (+ (* ?x438 |v7:4|) (* (- 10.0) (rval2 |v6:5_st|))) (* ?x1435 |v3:8|)) ?x210)))
 (let ((?x2032 (+ (+ (+ (* 2.0 |v7:4|) (* (- 13.0) |v3:8|)) (* 17.0 |v9:2|)) (* 12.0 |v1:10|))))
 (let (($x1864 (or (or (<= ?x2032 10.0) (<= ?x1661 6.0)) (and (<= ?x2306 ?x1435) $x191))))
 (let (($x1050 (or $x1864 (or (or $x662 (<= (+ ?x1004 (* 4.0 (rval2 |v0:11_st|))) ?x1273)) $x2829))))
 (let ((?x2197 (+ (+ (+ (* 18.0 |v3:8|) (* 18.0 |v1:10|)) (* 20.0 ?x2213)) (* (- 10.0) (rval2 |v8:3_st|)))))
 (let ((?x2193 (- 14.0)))
 (let ((?x1628 (+ (+ (+ (* (- 4.0) |v7:4|) (* (- 6.0) |v3:8|)) (* ?x2792 ?x2859)) (* 12.0 (rval2 |v4:7_st|)))))
 (let ((?x1674 (- 1.0)))
 (let ((?x1382 (* 14.0 ?x2213)))
 (let ((?x367 (+ (+ (+ (* 0.0 |v11:0|) (* 0.0 |v11:0|)) (* (- 3.0) ?x2859)) ?x1382)))
 (let ((?x609 (rval2 |v4:7_st|)))
 (let ((?x444 (* 8.0 ?x609)))
 (let ((?x948 (+ (+ (* (- 17.0) (rval2 |v6:5_st|)) (* (- 8.0) (rval2 |v0:11_st|))) ?x444)))
 (let (($x791 (or (or (<= (+ ?x948 (* (- 5.0) |v11:0|)) 18.0) (<= ?x367 ?x1674)) (and (<= ?x1628 ?x2193) (<= ?x2197 8.0)))))
 (let ((?x1344 (* 16.0 ?x2859)))
 (let ((?x2830 (+ (+ (+ (* 3.0 (rval2 |v0:11_st|)) (* 11.0 (rval2 |v8:3_st|))) ?x1344) |v1:10|)))
 (let ((?x151 (- 7.0)))
 (let ((?x2498 (+ (+ (* 16.0 (rval2 |v6:5_st|)) (* (- 11.0) |v3:8|)) (* (- 10.0) ?x2859))))
 (let ((?x2874 (- 13.0)))
 (let ((?x824 (+ (+ (* (- 17.0) |v11:0|) (* 4.0 |v1:10|)) (* (- 11.0) (rval2 |v8:3_st|)))))
 (let (($x324 (and (<= (+ ?x824 (* 3.0 |v11:0|)) ?x2874) (<= (+ ?x2498 (* ?x1273 |v5:6|)) ?x151))))
 (let ((?x908 (rval2 |v8:3_st|)))
 (let ((?x2173 (* 10.0 ?x908)))
 (let ((?x2062 (* 15.0 |v9:2|)))
 (let ((?x2598 (+ (+ (+ (* (- 6.0) (rval2 |v0:11_st|)) (* 8.0 (rval2 |v0:11_st|))) ?x2062) ?x2173)))
 (let ((?x1007 (* ?x2193 |v7:4|)))
 (let (($x385 (<= (+ (+ (+ (* 20.0 ?x908) (* ?x2792 |v9:2|)) (* (- 20.0) |v11:0|)) ?x1007) 18.0)))
 (let ((?x1016 (+ (+ (+ (* ?x1435 |v11:0|) (* ?x2874 ?x609)) (* (- 6.0) |v11:0|)) (* (- 10.0) |v11:0|))))
 (let ((?x228 (- 8.0)))
 (let ((?x1207 (* 19.0 ?x2859)))
 (let (($x2816 (<= (+ (+ (+ ?x1938 (* 15.0 (rval2 |v0:11_st|))) (* 4.0 |v3:8|)) ?x1207) ?x228)))
 (let ((?x1001 (+ (+ (+ (* ?x1273 (rval2 |v0:11_st|)) (* 8.0 ?x908)) (* ?x1435 |v1:10|)) (* ?x1273 ?x2213))))
 (let ((?x2882 (- 10.0)))
 (let ((?x1975 (+ (+ (+ (* ?x2792 |v5:6|) (* 2.0 ?x609)) (* ?x1435 |v11:0|)) (* (- 16.0) ?x609))))
 (let (($x818 (or (or (<= ?x1975 ?x2882) (<= ?x1001 3.0)) (and $x2816 (<= ?x1016 1.0)))))
 (let ((?x1043 (+ (+ (+ (* 15.0 ?x609) (* 3.0 |v3:8|)) (* 14.0 |v5:6|)) (* ?x228 ?x2859))))
 (let ((?x1356 (rval2 |v0:11_st|)))
 (let ((?x590 (* 15.0 ?x1356)))
 (let (($x1214 (<= (+ (+ (+ (* 3.0 |v5:6|) (* (- 20.0) ?x908)) (* ?x2792 ?x2213)) ?x590) 5.0)))
 (let ((?x1932 (* 0.0 |v7:4|)))
 (let ((?x2079 (rval2 |v6:5_st|)))
 (let ((?x2309 (* 6.0 ?x2079)))
 (let (($x328 (<= (+ (+ (+ (* (- 16.0) ?x2213) (* (- 9.0) ?x908)) ?x2309) ?x1932) 14.0)))
 (let ((?x1381 (- 5.0)))
 (let (($x1148 (and (<= (+ (+ (+ (* ?x151 ?x908) (* (- 17.0) |v9:2|)) ?x2309) ?x2264) ?x1381) $x328)))
 (let ((?x1220 (+ (+ (+ (* (- 17.0) ?x908) (* ?x1435 ?x908)) (* ?x2882 |v9:2|)) (* 17.0 ?x2079))))
 (let ((?x2857 (+ (+ (+ (* 4.0 |v9:2|) (* 10.0 ?x2213)) (* 8.0 |v1:10|)) (* (- 16.0) |v9:2|))))
 (let (($x225 (<= (+ (+ (+ (* 8.0 ?x908) (* 2.0 |v9:2|)) ?x444) (* 18.0 |v5:6|)) ?x151)))
 (let (($x1903 (and (<= (+ (+ (+ ?x1938 (* ?x2874 ?x2079)) |v1:10|) (* 2.0 ?x908)) ?x2792) $x225)))
 (let (($x2638 (and (or $x1903 (and (<= ?x2857 18.0) (<= ?x1220 2.0))) (or $x1148 (or $x1214 (<= ?x1043 8.0))))))
 (let (($x1844 (or (and $x2638 (or $x818 (and (or $x385 (<= ?x2598 ?x2193)) $x324))) (and (or (<= ?x2830 ?x1273) $x791) $x1050))))
 (let (($x1423 (not (= |v0:11_st| (RMk1 val!2009)))))
 (let (($x937 (not (= |v2:9_st| (RMk1 val!2008)))))
 (let (($x1277 (not (= |v4:7_st| (RMk1 val!2007)))))
 (let (($x1151 (not (= |v6:5_st| (RMk1 val!2006)))))
 (let (($x1011 (not (= |v8:3_st| (RMk1 val!2005)))))
 (let (($x439 (not (= |v10:1_st| (RMk1 val!2004)))))
 (and $x439 $x1011 $x1151 $x1277 $x937 $x1423 (and $x1844 (<= (+ ?x1509 ?x1289) 12.0)))))))))))))))))))))))))))))))))))))))))))))))))))))))))))))))))))))))))))))))))
 )
 )
 )
 )
 )
 )
 )
 )
 )
 )
 )
 )
(check-sat)
